<number of tasks>
20

<cycle time>
1000

<order strength>
0,274


<task times>
1 464
2 273
3 134
4 123
5 530
6 115
7 176
8 141
9 287
10 418
11 103
12 327
13 49
14 191
15 123
16 82
17 301
18 502
19 123
20 30

<precedence relations>
1,12
2,12
3,9
3,10
3,11
4,6
4,7
4,8
6,12
7,12
8,13
11,14
12,15
12,16
12,17
12,18
12,19
15,20

<end>
